; SPDX-License-Identifier: MPL-2.0
; Copyright (c) 2026 The RIINA Authors.
; Auto-generated from 02_FORMAL/coq/foundations/Typing.v (12 validations)
; Generated by scripts/generate-full-stack.py
;
; Translation Validation for Typing
; Layer 9: Verifies compiler backend preserves formal semantics.
; Each assertion checks source IR ≡ target code for a proven property.

(set-logic QF_LIA)
(set-option :produce-models true)

; IR node representation
(declare-sort IRNode 0)
(declare-sort TargetNode 0)

; store_wf: source semantics (matches Coq)
(declare-fun source_store_wf () Bool)
(declare-fun target_store_wf () Bool)
(assert (= source_store_wf target_store_wf))

; store_ty_extends: source semantics (matches Coq)
(declare-fun source_store_ty_extends () Bool)
(declare-fun target_store_ty_extends () Bool)
(assert (= source_store_ty_extends target_store_ty_extends))

; type_uniqueness: translation preserves property (matches Coq: Lemma)
(declare-fun source_type_uniqueness () Bool)
(declare-fun target_type_uniqueness () Bool)
(assert (= source_type_uniqueness target_type_uniqueness))

; canonical_forms_unit: translation preserves property (matches Coq: Lemma)
(declare-fun source_canonical_forms_unit () Bool)
(declare-fun target_canonical_forms_unit () Bool)
(assert (= source_canonical_forms_unit target_canonical_forms_unit))

; canonical_forms_bool: translation preserves property (matches Coq: Lemma)
(declare-fun source_canonical_forms_bool () Bool)
(declare-fun target_canonical_forms_bool () Bool)
(assert (= source_canonical_forms_bool target_canonical_forms_bool))

; canonical_forms_int: translation preserves property (matches Coq: Lemma)
(declare-fun source_canonical_forms_int () Bool)
(declare-fun target_canonical_forms_int () Bool)
(assert (= source_canonical_forms_int target_canonical_forms_int))

; canonical_forms_string: translation preserves property (matches Coq: Lemma)
(declare-fun source_canonical_forms_string () Bool)
(declare-fun target_canonical_forms_string () Bool)
(assert (= source_canonical_forms_string target_canonical_forms_string))

; canonical_forms_fn: translation preserves property (matches Coq: Lemma)
(declare-fun source_canonical_forms_fn () Bool)
(declare-fun target_canonical_forms_fn () Bool)
(assert (= source_canonical_forms_fn target_canonical_forms_fn))

; canonical_forms_prod: translation preserves property (matches Coq: Lemma)
(declare-fun source_canonical_forms_prod () Bool)
(declare-fun target_canonical_forms_prod () Bool)
(assert (= source_canonical_forms_prod target_canonical_forms_prod))

; canonical_forms_sum: translation preserves property (matches Coq: Lemma)
(declare-fun source_canonical_forms_sum () Bool)
(declare-fun target_canonical_forms_sum () Bool)
(assert (= source_canonical_forms_sum target_canonical_forms_sum))

; canonical_forms_ref: translation preserves property (matches Coq: Lemma)
(declare-fun source_canonical_forms_ref () Bool)
(declare-fun target_canonical_forms_ref () Bool)
(assert (= source_canonical_forms_ref target_canonical_forms_ref))

; canonical_forms_secret: translation preserves property (matches Coq: Lemma)
(declare-fun source_canonical_forms_secret () Bool)
(declare-fun target_canonical_forms_secret () Bool)
(assert (= source_canonical_forms_secret target_canonical_forms_secret))

; canonical_forms_proof: translation preserves property (matches Coq: Lemma)
(declare-fun source_canonical_forms_proof () Bool)
(declare-fun target_canonical_forms_proof () Bool)
(assert (= source_canonical_forms_proof target_canonical_forms_proof))

; canonical_forms: translation preserves property (matches Coq: Lemma)
(declare-fun source_canonical_forms () Bool)
(declare-fun target_canonical_forms () Bool)
(assert (= source_canonical_forms target_canonical_forms))

; Verify all translation validations are satisfiable
(check-sat)
(exit)
